n_res = 4;
rc = [ 37, 35, 32, 28 ];
n_tasks = 30;
d = [ 4, 8, 8, 4, 1, 7, 9, 3, 8, 5, 2, 10, 3, 3, 8, 4, 7, 10, 4, 7, 4, 1, 10, 8, 4, 8, 2, 2, 6, 2 ];
rr = [| 5, 5, 2, 3, 9, 4, 2, 4, 8, 3, 0, 9, 7, 0, 7, 7, 4, 8, 9, 3, 5, 8, 0, 4, 0, 0, 1, 4, 6, 0
      | 5, 3, 5, 7, 0, 9, 0, 0, 7, 5, 6, 1, 9, 0, 0, 5, 4, 10, 9, 0, 5, 0, 1, 10, 10, 2, 7, 2, 3, 4
      | 0, 6, 0, 7, 1, 7, 0, 0, 0, 0, 10, 5, 0, 1, 0, 8, 5, 6, 6, 3, 2, 9, 7, 10, 0, 7, 3, 4, 1, 7
      | 10, 4, 10, 0, 5, 0, 10, 4, 6, 0, 8, 0, 9, 4, 3, 1, 3, 7, 5, 9, 1, 0, 4, 9, 0, 6, 4, 6, 0, 4 |];
suc = [ { 2 }, 
        { 3 }, 
        { 4 }, 
        { 5 }, 
        { 6 }, 
        { 7 }, 
        { 8 }, 
        { 9 }, 
        { 10 }, 
        { 11 }, 
        { 12 }, 
        { 13 }, 
        { 14 }, 
        { 15 }, 
        { 16 }, 
        { 17 }, 
        { 18 }, 
        { 19 }, 
        { 20 }, 
        { 21 }, 
        { 22 }, 
        { 23 }, 
        { 24 }, 
        { 25 }, 
        { 26 }, 
        { 27 }, 
        { 28 }, 
        { 29 }, 
        { 30 }, 
        {  }]; 
